COLUMNS

passenger_count
pickup_ID
dropoff_ID
request_time_sec
pickup_district
dropoff_district
LDuals
IDuals
vehicle_ID
pick_position
drop_position

REQUESTS_INFO
1      749       673       30554     290       189       146       146       54        1         4         
2      669       413       30563     280       52        106       106       86        1         4         
1      233       197       30568     206       178       143       143       113       1         2         
1      1034      1200      30569     84        84        188       188       117       1         2         
3      1048      1032      30450     291       84        257       257       128       1         2         
3      479       431       30540     52        52        163       163       230       1         3         
1      479       292       30563     52        87        138       138       230       2         4         
1      936       603       30549     291       189       154       154       237       1         4         
3      727       1068      30498     290       291       221       221       254       1         2         
2      334       605       30551     119       189       181       181       262       1         3         
1      217       232       30569     87        266       164       164       274       1         2         
1      850       696       30551     291       189       131       131       319       1         3         
3      839       743       30482     290       290       194       194       329       1         2         
1      1187      1107      30560     291       291       112       112       368       1         2         
1      443       674       30568     168       189       136       136       402       1         3         
3      311       576       30530     87        189       214       214       419       1         2         
1      677       530       30546     189       189       115       115       429       1         2         
3      296       332       30486     277       87        284       284       433       1         2         
3      815       905       30475     290       290       205       205       435       1         2         
1      1001      1371      30512     291       129       214       214       450       1         2         
1      1045      741       30564     291       50        135       135       487       1         2         
2      906       882       30531     290       290       151       151       502       1         2         
2      498       534       30566     52        199       190       190       543       1         2         
2      550       532       30542     189       199       107       107       574       1         2         
2      507       437       30523     189       100       148       148       578       1         2         
1      925       1025      30561     290       291       162       162       615       1         4         
1      369       460       30556     52        189       138       138       622       1         3         
3      334       605       30551     119       189       181       181       635       1         3         
1      330       651       30552     127       189       207       207       646       1         3         
1      1001      720       30525     291       290       201       201       654       1         3         
1      1001      697       30537     291       189       182       182       654       2         4         
1      665       643       30561     131       131       109       109       679       1         2         
1      916       674       30558     291       189       151       151       690       1         4         
2      790       649       30543     290       189       120       120       786       1         4         
1      478       21        30545     52        98        118       118       832       1         3         
1      902       946       30516     50        290       205       205       881       1         2         
1      749       60        30536     290       9         165       165       905       1         2         
3      158       333       30569     174       119       126       126       912       1         2         
2      860       696       30524     290       189       153       153       919       1         4         
1      500       526       30546     52        52        175       175       935       1         2         
1      936       859       30559     291       290       144       144       937       1         3         
3      860       696       30524     290       189       153       153       950       1         2         
1      289       289       30515     127       127       272       272       973       1         2         
1      795       690       30557     290       131       122       122       978       1         4         
1      904       1151      30535     290       291       125       125       1053      1         4         
1      328       675       30557     299       189       186       186       1069      1         3         
1      835       699       30560     290       290       116       116       1073      1         2         
1      983       896       30521     291       291       240       240       1137      1         2         
1      946       772       30557     290       290       154       154       1175      1         2         
1      852       717       30546     291       189       136       136       1194      1         4         
1      328       604       30513     299       189       230       230       1229      1         2         
1      875       947       30553     291       290       155       155       1337      1         3         
1      694       79        30541     189       98        140       140       1353      1         2         
1      442       378       30549     168       168       143       143       1797      1         3         
1      583       676       30569     189       189       105       105       1853      1         2         
1      995       1098      30550     84        84        219       219       1882      1         2         
1      234       117       30565     87        286       108       108       1985      1         3         
1      1044      476       30570     291       52        0         0         0         0         0         
1      461       670       30570     189       280       0         0         0         0         0         
3      608       504       30571     189       52        0         0         0         0         0         
3      968       787       30571     290       50        0         0         0         0         0         
3      608       504       30571     189       52        0         0         0         0         0         
2      267       81        30571     266       98        0         0         0         0         0         
3      267       81        30571     266       98        0         0         0         0         0         
3      968       787       30571     290       50        0         0         0         0         0         
2      771       460       30571     290       189       0         0         0         0         0         
1      691       393       30571     131       52        0         0         0         0         0         
1      1263      850       30571     192       291       0         0         0         0         0         
1      81        48        30571     98        98        0         0         0         0         0         
2      632       748       30571     189       290       0         0         0         0         0         
1      191       35        30571     266       98        0         0         0         0         0         
3      356       399       30571     119       168       0         0         0         0         0         
2      356       399       30571     119       168       0         0         0         0         0         
1      1010      810       30572     290       290       0         0         0         0         0         
1      533       858       30572     199       290       0         0         0         0         0         
1      735       437       30572     131       100       0         0         0         0         0         
1      680       602       30572     290       189       0         0         0         0         0         
1      749       606       30572     290       189       0         0         0         0         0         
1      304       171       30573     299       286       0         0         0         0         0         
2      584       813       30573     189       290       0         0         0         0         0         
1      488       530       30573     199       189       0         0         0         0         0         
1      545       193       30573     52        266       0         0         0         0         0         
1      948       789       30573     290       290       0         0         0         0         0         
1      348       600       30573     299       280       0         0         0         0         0         
1      312       416       30575     87        100       0         0         0         0         0         
1      440       293       30575     168       87        0         0         0         0         0         
1      719       673       30575     189       189       0         0         0         0         0         
1      462       697       30575     189       189       0         0         0         0         0         
2      621       1011      30575     280       84        0         0         0         0         0         
1      233       10        30575     206       98        0         0         0         0         0         
2      1027      720       30575     50        290       0         0         0         0         0         
1      1225      989       30575     192       50        0         0         0         0         0         
2      232       353       30575     266       119       0         0         0         0         0         
1      30        47        30575     9         98        0         0         0         0         0         
2      969       656       30576     290       290       0         0         0         0         0         
1      290       392       30576     127       52        0         0         0         0         0         
1      605       452       30576     189       52        0         0         0         0         0         
1      583       767       30576     189       290       0         0         0         0         0         
2      408       549       30576     299       52        0         0         0         0         0         
3      715       35        30576     131       98        0         0         0         0         0         
1      419       556       30577     168       199       0         0         0         0         0         
1      940       895       30577     291       291       0         0         0         0         0         
1      171       267       30577     286       266       0         0         0         0         0         
1      858       557       30577     290       189       0         0         0         0         0         
1      481       768       30577     189       290       0         0         0         0         0         
1      198       416       30577     178       100       0         0         0         0         0         
4      435       748       30577     52        290       0         0         0         0         0         
1      437       232       30578     100       266       0         0         0         0         0         
1      504       438       30578     52        100       0         0         0         0         0         
1      1031      1088      30578     50        291       0         0         0         0         0         
1      31        107       30578     9         178       0         0         0         0         0         
1      78        535       30578     9         189       0         0         0         0         0         
2      395       358       30579     100       168       0         0         0         0         0         
3      395       358       30579     100       168       0         0         0         0         0         
1      811       837       30579     290       290       0         0         0         0         0         
1      527       395       30579     52        100       0         0         0         0         0         
2      512       295       30579     199       87        0         0         0         0         0         
1      793       531       30579     290       189       0         0         0         0         0         
1      500       603       30580     52        189       0         0         0         0         0         
1      459       579       30580     189       189       0         0         0         0         0         
3      828       904       30580     291       290       0         0         0         0         0         
1      457       368       30580     52        299       0         0         0         0         0         
3      828       904       30580     291       290       0         0         0         0         0         
1      173       810       30580     286       290       0         0         0         0         0         
1      311       374       30580     87        119       0         0         0         0         0         
2      1024      1129      30580     291       291       0         0         0         0         0         
2      771       816       30580     290       290       0         0         0         0         0         
1      464       399       30580     168       168       0         0         0         0         0         
1      609       398       30580     189       168       0         0         0         0         0         
1      418       440       30580     168       168       0         0         0         0         0         
1      723       772       30581     290       290       0         0         0         0         0         
1      630       512       30581     189       199       0         0         0         0         0         
1      748       760       30581     290       291       0         0         0         0         0         
1      698       671       30581     189       280       0         0         0         0         0         
3      527       272       30582     52        127       0         0         0         0         0         
4      233       433       30582     206       52        0         0         0         0         0         
2      675       247       30582     189       266       0         0         0         0         0         
1      680       601       30582     290       189       0         0         0         0         0         
1      720       721       30582     290       290       0         0         0         0         0         
1      1195      1056      30582     129       84        0         0         0         0         0         
1      326       134       30582     299       9         0         0         0         0         0         
3      527       272       30582     52        127       0         0         0         0         0         
1      744       652       30583     290       189       0         0         0         0         0         
1      605       504       30583     189       52        0         0         0         0         0         
1      700       793       30583     290       290       0         0         0         0         0         
2      370       409       30583     52        52        0         0         0         0         0         
3      370       409       30583     52        52        0         0         0         0         0         
1      851       760       30584     291       291       0         0         0         0         0         
1      328       625       30584     299       189       0         0         0         0         0         
1      247       289       30584     266       127       0         0         0         0         0         
1      194       335       30584     207       119       0         0         0         0         0         
2      376       435       30585     168       52        0         0         0         0         0         
2      1503      1404      30585     296       129       0         0         0         0         0         
1      434       462       30585     52        189       0         0         0         0         0         
3      291       348       30585     87        299       0         0         0         0         0         
1      971       967       30585     290       50        0         0         0         0         0         
1      693       554       30585     280       189       0         0         0         0         0         
1      574       597       30585     189       131       0         0         0         0         0         
2      171       461       30586     286       189       0         0         0         0         0         
1      434       192       30586     52        266       0         0         0         0         0         
1      217       313       30586     87        87        0         0         0         0         0         
1      455       651       30587     52        189       0         0         0         0         0         
1      210       284       30587     266       299       0         0         0         0         0         
1      440       508       30587     168       199       0         0         0         0         0         
1      736       544       30587     131       52        0         0         0         0         0         
1      603       739       30587     189       189       0         0         0         0         0         
1      194       604       30587     207       189       0         0         0         0         0         
1      304       600       30587     299       280       0         0         0         0         0         
1      726       701       30588     290       290       0         0         0         0         0         
1      584       653       30588     189       189       0         0         0         0         0         
2      861       814       30588     290       290       0         0         0         0         0         
3      861       814       30588     290       290       0         0         0         0         0         
3      1265      1130      30589     192       291       0         0         0         0         0         
3      1265      1130      30589     192       291       0         0         0         0         0         
2      599       937       30589     280       291       0         0         0         0         0         
1      817       554       30589     290       189       0         0         0         0         0         
1      10        581       30589     98        189       0         0         0         0         0         
1      902       720       30589     50        290       0         0         0         0         0         
1      650       438       30589     189       100       0         0         0         0         0         
1      1319      1148      30589     129       291       0         0         0         0         0         
1      579       579       30589     189       189       0         0         0         0         0         
3      599       937       30589     280       291       0         0         0         0         0         
1      509       647       30590     199       280       0         0         0         0         0         
1      736       553       30590     131       189       0         0         0         0         0         
1      791       11        30590     290       999       0         0         0         0         0         
1      674       558       30590     189       189       0         0         0         0         0         
1      522       396       30590     52        119       0         0         0         0         0         
1      444       485       30590     168       189       0         0         0         0         0         
2      621       639       30590     280       131       0         0         0         0         0         
1      655       608       30590     189       189       0         0         0         0         0         
1      529       605       30590     189       189       0         0         0         0         0         
2      1004      916       30590     291       291       0         0         0         0         0         
1      1310      1053      30591     84        84        0         0         0         0         0         
1      236       532       30591     87        199       0         0         0         0         0         
1      601       715       30591     189       131       0         0         0         0         0         
1      627       512       30591     189       199       0         0         0         0         0         
1      578       431       30591     189       52        0         0         0         0         0         
1      718       574       30591     189       189       0         0         0         0         0         
2      417       430       30592     100       52        0         0         0         0         0         
1      837       556       30592     290       199       0         0         0         0         0         
2      745       482       30592     290       189       0         0         0         0         0         
3      745       482       30592     290       189       0         0         0         0         0         
3      680       711       30592     290       131       0         0         0         0         0         
1      723       837       30592     290       290       0         0         0         0         0         
1      781       722       30593     291       290       0         0         0         0         0         
2      375       575       30593     119       189       0         0         0         0         0         
1      356       35        30593     119       98        0         0         0         0         0         
1      62        192       30593     98        266       0         0         0         0         0         
1      529       415       30593     189       100       0         0         0         0         0         
1      500       556       30594     52        199       0         0         0         0         0         
1      1129      526       30595     291       52        0         0         0         0         0         
1      818       355       30595     290       119       0         0         0         0         0         
1      44        624       30595     98        189       0         0         0         0         0         
1      618       393       30595     131       52        0         0         0         0         0         
1      529       694       30595     189       189       0         0         0         0         0         
1      816       440       30595     290       168       0         0         0         0         0         
2      442       647       30595     168       280       0         0         0         0         0         
1      839       903       30595     290       290       0         0         0         0         0         
1      926       1054      30595     290       84        0         0         0         0         0         
1      217       332       30595     87        87        0         0         0         0         0         
1      213       289       30596     266       127       0         0         0         0         0         
2      810       527       30596     290       52        0         0         0         0         0         
4      936       1373      30596     291       129       0         0         0         0         0         
1      719       48        30596     189       98        0         0         0         0         0         
3      504       458       30597     52        52        0         0         0         0         0         
1      575       213       30597     189       266       0         0         0         0         0         
3      504       458       30597     52        52        0         0         0         0         0         
1      500       458       30597     52        52        0         0         0         0         0         
2      461       250       30598     189       127       0         0         0         0         0         
3      461       250       30598     189       127       0         0         0         0         0         
1      556       376       30598     199       168       0         0         0         0         0         
4      549       628       30598     52        189       0         0         0         0         0         
3      441       674       30598     168       189       0         0         0         0         0         
2      47        60        30598     98        9         0         0         0         0         0         
1      985       648       30598     50        189       0         0         0         0         0         
1      760       674       30598     291       189       0         0         0         0         0         
1      505       44        30598     52        98        0         0         0         0         0         
1      748       408       30598     290       299       0         0         0         0         0         
1      885       527       30598     290       52        0         0         0         0         0         
3      189       135       30599     286       286       0         0         0         0         0         
2      189       135       30599     286       286       0         0         0         0         0         
3      408       19        30599     299       98        0         0         0         0         0         
3      408       19        30599     299       98        0         0         0         0         0         
1      662       649       30599     131       189       0         0         0         0         0         
2      694       698       30599     189       189       0         0         0         0         0         
1      530       304       30599     189       299       0         0         0         0         0         
1      622       557       30599     280       189       0         0         0         0         0         
1      573       138       30599     189       57        0         0         0         0         0         
1      509       499       30599     199       52        0         0         0         0         0         
